benchmark/results/graph__10-1000-0.10-02_10/graph__10-1000-0.10-02_10_QuintonOs_Benders_aux.lp
\ This file has been generated by DOcplex
\ ENCODING=ISO-8859-1
\Problem name: Quinton Bounded Benders_auxiliary_sub

Minimize
 obj: 0.001147153972 pi_nr_a0 + 0.000899957794 pi_nr_a1
      + 0.001198093217 pi_nr_a2 + 0.000829875519 pi_nr_a3
      + 0.001589971947 pi_nr_a4 + 0.001165537993 pi_nr_a5
      + 0.001114827202 pi_nr_a6 + 0.000975609756 pi_nr_a7
      + 0.000859208066 pi_nr_a8 + 0.000835036167 pi_nr_a9 + pi_p_a0_a4
      + pi_p_a2_a5 + pi_p_a6_a7 + pi_p_a0_a7 + pi_p_a2_a4 + pi_p_a3_a5
      + pi_p_a9_a9 + pi_p_a0_a5 + 2029.576337216774 pi_d_a0_a1_proc_1
      + 521.358935216322 pi_d_a0_a1_proc_0 + 2019.641064783678 pi_d_a1_a0_proc_1
      + 511.423662783226 pi_d_a1_a0_proc_0 + 1193.690325413816 pi_d_a0_a2_proc_1
      + 1353.172252465326 pi_d_a0_a2_proc_0
      + 1187.827747534673 pi_d_a2_a0_proc_1
      + 1347.309674586184 pi_d_a2_a0_proc_0 + 763.462953057136 pi_d_a0_a3_proc_1
      + 755.138786953885 pi_d_a3_a0_proc_1 + 1325.437000634807 pi_d_a0_a4_proc_1
      + 1237.073461507489 pi_d_a0_a4_proc_0
      + 1303.926538492511 pi_d_a4_a0_proc_1
      + 1215.562999365193 pi_d_a4_a0_proc_0
      + 1950.777419272350 pi_d_a0_a5_proc_1 + 581.591332396774 pi_d_a0_a5_proc_0
      + 1959.408667603226 pi_d_a5_a0_proc_1 + 590.222580727650 pi_d_a5_a0_proc_0
      + 516.029914940471 pi_d_a0_a6_proc_0 + 507.368345048508 pi_d_a6_a0_proc_0
      + 766.373161005558 pi_d_a0_a7_proc_1 + 752.228579005463 pi_d_a7_a0_proc_1
      + 1400.628838999478 pi_d_a0_a8_proc_1
      + 1143.434995675410 pi_d_a0_a8_proc_0
      + 1397.565004324590 pi_d_a8_a0_proc_1
      + 1140.371161000523 pi_d_a8_a0_proc_0 + 996.405858047227 pi_d_a0_a9_proc_1
      + 1542.732846936226 pi_d_a0_a9_proc_0 + 998.267153063774 pi_d_a9_a0_proc_1
      + 1544.594141952773 pi_d_a9_a0_proc_0
      + 1689.463109632530 pi_d_a1_a2_proc_1 + 835.931114705631 pi_d_a1_a2_proc_0
      + 1705.068885294369 pi_d_a2_a1_proc_1 + 851.536890367470 pi_d_a2_a1_proc_0
      + 1255.341617201687 pi_d_a1_a3_proc_1
      + 1276.274044787744 pi_d_a3_a1_proc_1
      + 1814.769896432855 pi_d_a1_a4_proc_1 + 713.392435327127 pi_d_a1_a4_proc_0
      + 1827.607564672873 pi_d_a4_a1_proc_1 + 726.230103567145 pi_d_a4_a1_proc_0
      + 2462.140422241343 pi_d_a1_a5_proc_1 + 79.940413387358 pi_d_a1_a5_proc_0
      + 2461.059586612641 pi_d_a5_a1_proc_1 + 78.859577758657 pi_d_a5_a1_proc_0
      + 4.651529542287 pi_d_a1_a6_proc_0 + 5.732808468282 pi_d_a6_a1_proc_0
      + 1277.267190160811 pi_d_a1_a7_proc_1
      + 1254.348471828619 pi_d_a7_a1_proc_1
      + 1911.366943757444 pi_d_a1_a8_proc_1 + 641.159178454967 pi_d_a1_a8_proc_0
      + 1899.840821545033 pi_d_a8_a1_proc_1 + 629.633056242556 pi_d_a8_a1_proc_0
      + 1513.634954696040 pi_d_a1_a9_proc_1
      + 1046.948021606630 pi_d_a1_a9_proc_0
      + 1494.051978393370 pi_d_a9_a1_proc_1
      + 1027.365045303960 pi_d_a9_a1_proc_0 + 435.534936545604 pi_d_a2_a3_proc_1
      + 428.381396391864 pi_d_a3_a2_proc_1 + 990.290298270175 pi_d_a2_a4_proc_1
      + 1556.612166216410 pi_d_a2_a4_proc_0 + 984.387833783590 pi_d_a4_a2_proc_1
      + 1550.709701729825 pi_d_a4_a2_proc_0
      + 1634.819783510576 pi_d_a2_a5_proc_1 + 920.319103708554 pi_d_a2_a5_proc_0
      + 1620.680896291446 pi_d_a5_a2_proc_1 + 906.180216489424 pi_d_a5_a2_proc_0
      + 831.278994838730 pi_d_a2_a6_proc_0 + 846.804672223802 pi_d_a6_a2_proc_0
      + 436.320205705894 pi_d_a2_a7_proc_1 + 427.596127231574 pi_d_a7_a2_proc_1
      + 1073.902504053988 pi_d_a2_a8_proc_1
      + 1471.394067803474 pi_d_a2_a8_proc_0
      + 1069.605932196526 pi_d_a8_a2_proc_1
      + 1467.097495946012 pi_d_a8_a2_proc_0 + 671.884609435822 pi_d_a2_a9_proc_1
      + 1872.897005398374 pi_d_a2_a9_proc_0 + 668.102994601626 pi_d_a9_a2_proc_1
      + 1869.115390564177 pi_d_a9_a2_proc_0 + 557.491003376969 pi_d_a3_a4_proc_1
      + 554.270795739327 pi_d_a4_a3_proc_1 + 1207.149252907965 pi_d_a3_a5_proc_1
      + 1185.435093956589 pi_d_a5_a3_proc_1 + 1.433736605104 pi_d_a3_a7_proc_1
      - 0.433736605104 pi_d_a7_a3_proc_1 + 635.090006260641 pi_d_a3_a8_proc_1
      + 645.502097052405 pi_d_a8_a3_proc_1 + 243.375095719863 pi_d_a3_a9_proc_1
      + 233.696175380116 pi_d_a9_a3_proc_1 + 1757.970699471941 pi_d_a4_a5_proc_1
      + 795.624553491090 pi_d_a4_a5_proc_0 + 1745.375446508910 pi_d_a5_a4_proc_1
      + 783.029300528059 pi_d_a5_a4_proc_0 + 709.563714255698 pi_d_a4_a6_proc_0
      + 720.674486628006 pi_d_a6_a4_proc_0 + 550.570719807705 pi_d_a4_a7_proc_1
      + 561.191079308592 pi_d_a7_a4_proc_1 + 1206.380827084095 pi_d_a4_a8_proc_1
      + 1356.026924654753 pi_d_a4_a8_proc_0
      + 1184.973075345248 pi_d_a8_a4_proc_1
      + 1334.619172915905 pi_d_a8_a4_proc_0 + 797.543691592997 pi_d_a4_a9_proc_1
      + 1750.710621376721 pi_d_a4_a9_proc_0 + 790.289378623279 pi_d_a9_a4_proc_1
      + 1743.456308407002 pi_d_a9_a4_proc_0 + 73.565081613200 pi_d_a5_a6_proc_0
      + 75.850571522247 pi_d_a6_a5_proc_0 + 1207.149428477753 pi_d_a5_a7_proc_1
      + 1185.434918386801 pi_d_a7_a5_proc_1
      + 1838.531251557810 pi_d_a5_a8_proc_1 + 707.354801380210 pi_d_a5_a8_proc_0
      + 1833.645198619790 pi_d_a8_a5_proc_1 + 702.468748442190 pi_d_a8_a5_proc_0
      + 1432.056548542164 pi_d_a5_a9_proc_1
      + 1104.400930577630 pi_d_a5_a9_proc_0
      + 1436.599069422370 pi_d_a9_a5_proc_1
      + 1108.943451457836 pi_d_a9_a5_proc_0 + 635.763967403050 pi_d_a6_a8_proc_0
      + 625.643929283904 pi_d_a8_a6_proc_0 + 1030.718235665442 pi_d_a6_a9_proc_0
      + 1034.210493234579 pi_d_a9_a6_proc_0 + 646.089903962959 pi_d_a7_a8_proc_1
      + 634.502199350087 pi_d_a8_a7_proc_1 + 242.429777610784 pi_d_a7_a9_proc_1
      + 234.641493489196 pi_d_a9_a7_proc_1 + 888.703437211684 pi_d_a8_a9_proc_1
      + 1673.040062798658 pi_d_a8_a9_proc_0 + 867.959937201342 pi_d_a9_a8_proc_1
      + 1652.296562788316 pi_d_a9_a8_proc_0 + 0.597481000004 pi_y2_a0_proc_0
      + 0.402518999996 pi_y2_a0_proc_1 + 0.996305378736 pi_y2_a1_proc_0
      + 0.003694621264 pi_y2_a1_proc_1 + 0.339730839739 pi_y2_a2_proc_0
      + 0.660269160261 pi_y2_a2_proc_1 + pi_y2_a3_proc_1
      + 0.437307794928 pi_y2_a4_proc_0 + 0.562692205072 pi_y2_a4_proc_1
      + 0.941568640498 pi_y2_a5_proc_0 + 0.058431359502 pi_y2_a5_proc_1
      + pi_y2_a6_proc_0 + pi_y2_a7_proc_1 + 0.503776418627 pi_y2_a8_proc_0
      + 0.496223581373 pi_y2_a8_proc_1 + 0.187429634291 pi_y2_a9_proc_0
      + 0.812570365709 pi_y2_a9_proc_1
Subject To
 c1: 0.001158748552 pi_nr_a0 + 0.000900090009 pi_nr_a1 + 0.001270648030 pi_nr_a2
     + 0.000829875519 pi_nr_a3 + 0.001976284585 pi_nr_a4
     + 0.001183431953 pi_nr_a5 + 0.001114827202 pi_nr_a6
     + 0.000975609756 pi_nr_a7 + 0.000865800866 pi_nr_a8
     + 0.000846023689 pi_nr_a9 + pi_p_a0_a4 + pi_p_a2_a5 + pi_p_a6_a7
     + pi_p_a0_a7 + pi_p_a2_a4 + pi_p_a3_a5 + pi_p_a9_a9 + pi_p_a0_a5
     + 2541 pi_d_a0_a1_proc_1 + pi_d_a0_a1_proc_0 + 2540 pi_d_a1_a0_proc_1
     + 1282 pi_d_a0_a2_proc_1 + 1282 pi_d_a0_a2_proc_0 + 1259 pi_d_a2_a0_proc_1
     + 1259 pi_d_a2_a0_proc_0 + 1282 pi_d_a0_a3_proc_1 + 1259 pi_d_a3_a0_proc_1
     + 1282 pi_d_a0_a4_proc_1 + 1282 pi_d_a0_a4_proc_0 + 1259 pi_d_a4_a0_proc_1
     + 1259 pi_d_a4_a0_proc_0 + 2541 pi_d_a0_a5_proc_1 + pi_d_a0_a5_proc_0
     + 2540 pi_d_a5_a0_proc_1 + pi_d_a6_a0_proc_0 + 1282 pi_d_a0_a7_proc_1
     + 1259 pi_d_a7_a0_proc_1 + 2541 pi_d_a0_a8_proc_1 + pi_d_a0_a8_proc_0
     + 2540 pi_d_a8_a0_proc_1 + 1259 pi_d_a0_a9_proc_1 + 1259 pi_d_a0_a9_proc_0
     + 1282 pi_d_a9_a0_proc_1 + 1282 pi_d_a9_a0_proc_0 + 1259 pi_d_a1_a2_proc_1
     + 1259 pi_d_a1_a2_proc_0 + 1282 pi_d_a2_a1_proc_1 + 1282 pi_d_a2_a1_proc_0
     + 1259 pi_d_a1_a3_proc_1 + 1282 pi_d_a3_a1_proc_1 + 1259 pi_d_a1_a4_proc_1
     + 1259 pi_d_a1_a4_proc_0 + 1282 pi_d_a4_a1_proc_1 + 1282 pi_d_a4_a1_proc_0
     + 2541 pi_d_a1_a5_proc_1 + pi_d_a1_a5_proc_0 + 2540 pi_d_a5_a1_proc_1
     + pi_d_a6_a1_proc_0 + 1282 pi_d_a1_a7_proc_1 + 1259 pi_d_a7_a1_proc_1
     + 2541 pi_d_a1_a8_proc_1 + pi_d_a1_a8_proc_0 + 2540 pi_d_a8_a1_proc_1
     + 1282 pi_d_a1_a9_proc_1 + 1282 pi_d_a1_a9_proc_0 + 1259 pi_d_a9_a1_proc_1
     + 1259 pi_d_a9_a1_proc_0 + pi_d_a3_a2_proc_1 + pi_d_a2_a4_proc_1
     + 2541 pi_d_a2_a4_proc_0 + 2540 pi_d_a4_a2_proc_0 + 1282 pi_d_a2_a5_proc_1
     + 1282 pi_d_a2_a5_proc_0 + 1259 pi_d_a5_a2_proc_1 + 1259 pi_d_a5_a2_proc_0
     + 1259 pi_d_a2_a6_proc_0 + 1282 pi_d_a6_a2_proc_0 + pi_d_a2_a7_proc_1
     + 1282 pi_d_a2_a8_proc_1 + 1282 pi_d_a2_a8_proc_0 + 1259 pi_d_a8_a2_proc_1
     + 1259 pi_d_a8_a2_proc_0 + 2 pi_d_a2_a9_proc_1 + 2542 pi_d_a2_a9_proc_0
     - pi_d_a9_a2_proc_1 + 2539 pi_d_a9_a2_proc_0 + 2 pi_d_a3_a4_proc_1
     - pi_d_a4_a3_proc_1 + 1282 pi_d_a3_a5_proc_1 + 1259 pi_d_a5_a3_proc_1
     + pi_d_a3_a7_proc_1 + 1259 pi_d_a3_a8_proc_1 + 1282 pi_d_a8_a3_proc_1
     + 2 pi_d_a3_a9_proc_1 - pi_d_a9_a3_proc_1 + 1282 pi_d_a4_a5_proc_1
     + 1282 pi_d_a4_a5_proc_0 + 1259 pi_d_a5_a4_proc_1 + 1259 pi_d_a5_a4_proc_0
     + 1259 pi_d_a4_a6_proc_0 + 1282 pi_d_a6_a4_proc_0 + pi_d_a7_a4_proc_1
     + 1282 pi_d_a4_a8_proc_1 + 1282 pi_d_a4_a8_proc_0 + 1259 pi_d_a8_a4_proc_1
     + 1259 pi_d_a8_a4_proc_0 + pi_d_a4_a9_proc_1 + 2541 pi_d_a4_a9_proc_0
     + 2540 pi_d_a9_a4_proc_0 + pi_d_a6_a5_proc_0 + 1282 pi_d_a5_a7_proc_1
     + 1259 pi_d_a7_a5_proc_1 + 2541 pi_d_a5_a8_proc_1 + pi_d_a5_a8_proc_0
     + 2540 pi_d_a8_a5_proc_1 + 1259 pi_d_a5_a9_proc_1 + 1259 pi_d_a5_a9_proc_0
     + 1282 pi_d_a9_a5_proc_1 + 1282 pi_d_a9_a5_proc_0 + pi_d_a6_a8_proc_0
     + 1259 pi_d_a6_a9_proc_0 + 1282 pi_d_a9_a6_proc_0 + 1282 pi_d_a7_a8_proc_1
     + 1259 pi_d_a8_a7_proc_1 + pi_d_a7_a9_proc_1 + 1282 pi_d_a8_a9_proc_1
     + 1282 pi_d_a8_a9_proc_0 + 1259 pi_d_a9_a8_proc_1 + 1259 pi_d_a9_a8_proc_0
     + pi_y2_a0_proc_0 + pi_y2_a1_proc_0 + pi_y2_a2_proc_1 + pi_y2_a3_proc_1
     + pi_y2_a4_proc_1 + pi_y2_a5_proc_0 + pi_y2_a6_proc_0 + pi_y2_a7_proc_1
     + pi_y2_a8_proc_0 + pi_y2_a9_proc_1 = 0.000205296654
 c2: pi_nr_a0 + pi_nr_a1 + pi_nr_a2 + pi_nr_a3 + pi_nr_a4 + pi_nr_a5 + pi_nr_a6
     + pi_nr_a7 + pi_nr_a8 + pi_nr_a9 - pi_y1_a0 - pi_y1_a1 - pi_y1_a2
     - pi_y1_a3 - pi_y1_a4 - pi_y1_a5 - pi_y1_a6 - pi_y1_a7 - pi_y1_a8
     - pi_y1_a9 >= 1
 c3: - pi_p_a1_a0 + pi_p_a0_a4 - pi_p_a8_a0 + pi_p_a0_a7 + pi_p_a0_a5
     + pi_d_a0_a1_proc_1 + pi_d_a0_a1_proc_0 - pi_d_a1_a0_proc_1
     - pi_d_a1_a0_proc_0 + pi_d_a0_a2_proc_1 + pi_d_a0_a2_proc_0
     - pi_d_a2_a0_proc_1 - pi_d_a2_a0_proc_0 + pi_d_a0_a3_proc_1
     - pi_d_a3_a0_proc_1 + pi_d_a0_a4_proc_1 + pi_d_a0_a4_proc_0
     - pi_d_a4_a0_proc_1 - pi_d_a4_a0_proc_0 + pi_d_a0_a5_proc_1
     + pi_d_a0_a5_proc_0 - pi_d_a5_a0_proc_1 - pi_d_a5_a0_proc_0
     + pi_d_a0_a6_proc_0 - pi_d_a6_a0_proc_0 + pi_d_a0_a7_proc_1
     - pi_d_a7_a0_proc_1 + pi_d_a0_a8_proc_1 + pi_d_a0_a8_proc_0
     - pi_d_a8_a0_proc_1 - pi_d_a8_a0_proc_0 + pi_d_a0_a9_proc_1
     + pi_d_a0_a9_proc_0 - pi_d_a9_a0_proc_1 - pi_d_a9_a0_proc_0 >= 0
 c4: 863 pi_p_a0_a4 + 863 pi_p_a0_a7 + 863 pi_p_a0_a5 + 863 pi_d_a0_a1_proc_0
     + 863 pi_d_a0_a2_proc_0 + 863 pi_d_a0_a4_proc_0 + 863 pi_d_a0_a5_proc_0
     + 863 pi_d_a0_a6_proc_0 + 863 pi_d_a0_a8_proc_0 + 863 pi_d_a0_a9_proc_0
     + pi_y1_a0 + pi_y2_a0_proc_0 >= 0
 c5: 885 pi_p_a0_a4 + 885 pi_p_a0_a7 + 885 pi_p_a0_a5 + 885 pi_d_a0_a1_proc_1
     + 885 pi_d_a0_a2_proc_1 + 885 pi_d_a0_a3_proc_1 + 885 pi_d_a0_a4_proc_1
     + 885 pi_d_a0_a5_proc_1 + 885 pi_d_a0_a7_proc_1 + 885 pi_d_a0_a8_proc_1
     + 885 pi_d_a0_a9_proc_1 + pi_y1_a0 + pi_y2_a0_proc_1 >= 0
 c6: pi_p_a1_a0 + pi_p_a1_a2 - pi_p_a9_a1 - pi_p_a7_a1 - pi_d_a0_a1_proc_1
     - pi_d_a0_a1_proc_0 + pi_d_a1_a0_proc_1 + pi_d_a1_a0_proc_0
     + pi_d_a1_a2_proc_1 + pi_d_a1_a2_proc_0 - pi_d_a2_a1_proc_1
     - pi_d_a2_a1_proc_0 + pi_d_a1_a3_proc_1 - pi_d_a3_a1_proc_1
     + pi_d_a1_a4_proc_1 + pi_d_a1_a4_proc_0 - pi_d_a4_a1_proc_1
     - pi_d_a4_a1_proc_0 + pi_d_a1_a5_proc_1 + pi_d_a1_a5_proc_0
     - pi_d_a5_a1_proc_1 - pi_d_a5_a1_proc_0 + pi_d_a1_a6_proc_0
     - pi_d_a6_a1_proc_0 + pi_d_a1_a7_proc_1 - pi_d_a7_a1_proc_1
     + pi_d_a1_a8_proc_1 + pi_d_a1_a8_proc_0 - pi_d_a8_a1_proc_1
     - pi_d_a8_a1_proc_0 + pi_d_a1_a9_proc_1 + pi_d_a1_a9_proc_0
     - pi_d_a9_a1_proc_1 - pi_d_a9_a1_proc_0 >= 0
 c7: 1111 pi_p_a1_a0 + 1111 pi_p_a1_a2 + 1111 pi_d_a1_a0_proc_0
     + 1111 pi_d_a1_a2_proc_0 + 1111 pi_d_a1_a4_proc_0 + 1111 pi_d_a1_a5_proc_0
     + 1111 pi_d_a1_a6_proc_0 + 1111 pi_d_a1_a8_proc_0 + 1111 pi_d_a1_a9_proc_0
     + pi_y1_a1 + pi_y2_a1_proc_0 >= 0
 c8: 1157 pi_p_a1_a0 + 1157 pi_p_a1_a2 + 1157 pi_d_a1_a0_proc_1
     + 1157 pi_d_a1_a2_proc_1 + 1157 pi_d_a1_a3_proc_1 + 1157 pi_d_a1_a4_proc_1
     + 1157 pi_d_a1_a5_proc_1 + 1157 pi_d_a1_a7_proc_1 + 1157 pi_d_a1_a8_proc_1
     + 1157 pi_d_a1_a9_proc_1 + pi_y1_a1 + pi_y2_a1_proc_1 >= 0
 c9: - pi_p_a1_a2 + pi_p_a2_a3 + pi_p_a2_a5 - pi_p_a9_a2 + pi_p_a2_a4
     - pi_d_a0_a2_proc_1 - pi_d_a0_a2_proc_0 + pi_d_a2_a0_proc_1
     + pi_d_a2_a0_proc_0 - pi_d_a1_a2_proc_1 - pi_d_a1_a2_proc_0
     + pi_d_a2_a1_proc_1 + pi_d_a2_a1_proc_0 + pi_d_a2_a3_proc_1
     - pi_d_a3_a2_proc_1 + pi_d_a2_a4_proc_1 + pi_d_a2_a4_proc_0
     - pi_d_a4_a2_proc_1 - pi_d_a4_a2_proc_0 + pi_d_a2_a5_proc_1
     + pi_d_a2_a5_proc_0 - pi_d_a5_a2_proc_1 - pi_d_a5_a2_proc_0
     + pi_d_a2_a6_proc_0 - pi_d_a6_a2_proc_0 + pi_d_a2_a7_proc_1
     - pi_d_a7_a2_proc_1 + pi_d_a2_a8_proc_1 + pi_d_a2_a8_proc_0
     - pi_d_a8_a2_proc_1 - pi_d_a8_a2_proc_0 + pi_d_a2_a9_proc_1
     + pi_d_a2_a9_proc_0 - pi_d_a9_a2_proc_1 - pi_d_a9_a2_proc_0 >= 0
 c10: 946 pi_p_a2_a3 + 946 pi_p_a2_a5 + 946 pi_p_a2_a4 + 946 pi_d_a2_a0_proc_0
      + 946 pi_d_a2_a1_proc_0 + 946 pi_d_a2_a4_proc_0 + 946 pi_d_a2_a5_proc_0
      + 946 pi_d_a2_a6_proc_0 + 946 pi_d_a2_a8_proc_0 + 946 pi_d_a2_a9_proc_0
      + pi_y1_a2 + pi_y2_a2_proc_0 >= 0
 c11: 787 pi_p_a2_a3 + 787 pi_p_a2_a5 + 787 pi_p_a2_a4 + 787 pi_d_a2_a0_proc_1
      + 787 pi_d_a2_a1_proc_1 + 787 pi_d_a2_a3_proc_1 + 787 pi_d_a2_a4_proc_1
      + 787 pi_d_a2_a5_proc_1 + 787 pi_d_a2_a7_proc_1 + 787 pi_d_a2_a8_proc_1
      + 787 pi_d_a2_a9_proc_1 + pi_y1_a2 + pi_y2_a2_proc_1 >= 0
 c12: - pi_p_a2_a3 + pi_p_a3_a5 - pi_d_a0_a3_proc_1 + pi_d_a3_a0_proc_1
      - pi_d_a1_a3_proc_1 + pi_d_a3_a1_proc_1 - pi_d_a2_a3_proc_1
      + pi_d_a3_a2_proc_1 + pi_d_a3_a4_proc_1 - pi_d_a4_a3_proc_1
      + pi_d_a3_a5_proc_1 - pi_d_a5_a3_proc_1 + pi_d_a3_a7_proc_1
      - pi_d_a7_a3_proc_1 + pi_d_a3_a8_proc_1 - pi_d_a8_a3_proc_1
      + pi_d_a3_a9_proc_1 - pi_d_a9_a3_proc_1 >= 0
 c13: 1205 pi_p_a3_a5 + 1205 pi_d_a3_a0_proc_1 + 1205 pi_d_a3_a1_proc_1
      + 1205 pi_d_a3_a2_proc_1 + 1205 pi_d_a3_a4_proc_1 + 1205 pi_d_a3_a5_proc_1
      + 1205 pi_d_a3_a7_proc_1 + 1205 pi_d_a3_a8_proc_1 + 1205 pi_d_a3_a9_proc_1
      + pi_y1_a3 + pi_y2_a3_proc_1 >= 0
 c14: - pi_p_a0_a4 - pi_p_a2_a4 + pi_p_a4_a8 - pi_d_a0_a4_proc_1
      - pi_d_a0_a4_proc_0 + pi_d_a4_a0_proc_1 + pi_d_a4_a0_proc_0
      - pi_d_a1_a4_proc_1 - pi_d_a1_a4_proc_0 + pi_d_a4_a1_proc_1
      + pi_d_a4_a1_proc_0 - pi_d_a2_a4_proc_1 - pi_d_a2_a4_proc_0
      + pi_d_a4_a2_proc_1 + pi_d_a4_a2_proc_0 - pi_d_a3_a4_proc_1
      + pi_d_a4_a3_proc_1 + pi_d_a4_a5_proc_1 + pi_d_a4_a5_proc_0
      - pi_d_a5_a4_proc_1 - pi_d_a5_a4_proc_0 + pi_d_a4_a6_proc_0
      - pi_d_a6_a4_proc_0 + pi_d_a4_a7_proc_1 - pi_d_a7_a4_proc_1
      + pi_d_a4_a8_proc_1 + pi_d_a4_a8_proc_0 - pi_d_a8_a4_proc_1
      - pi_d_a8_a4_proc_0 + pi_d_a4_a9_proc_1 + pi_d_a4_a9_proc_0
      - pi_d_a9_a4_proc_1 - pi_d_a9_a4_proc_0 >= 0
 c15: 915 pi_p_a4_a8 + 915 pi_d_a4_a0_proc_0 + 915 pi_d_a4_a1_proc_0
      + 915 pi_d_a4_a2_proc_0 + 915 pi_d_a4_a5_proc_0 + 915 pi_d_a4_a6_proc_0
      + 915 pi_d_a4_a8_proc_0 + 915 pi_d_a4_a9_proc_0 + pi_y1_a4
      + pi_y2_a4_proc_0 >= 0
 c16: 506 pi_p_a4_a8 + 506 pi_d_a4_a0_proc_1 + 506 pi_d_a4_a1_proc_1
      + 506 pi_d_a4_a2_proc_1 + 506 pi_d_a4_a3_proc_1 + 506 pi_d_a4_a5_proc_1
      + 506 pi_d_a4_a7_proc_1 + 506 pi_d_a4_a8_proc_1 + 506 pi_d_a4_a9_proc_1
      + pi_y1_a4 + pi_y2_a4_proc_1 >= 0
 c17: - pi_p_a2_a5 + pi_p_a5_a6 - pi_p_a3_a5 - pi_p_a0_a5 - pi_d_a0_a5_proc_1
      - pi_d_a0_a5_proc_0 + pi_d_a5_a0_proc_1 + pi_d_a5_a0_proc_0
      - pi_d_a1_a5_proc_1 - pi_d_a1_a5_proc_0 + pi_d_a5_a1_proc_1
      + pi_d_a5_a1_proc_0 - pi_d_a2_a5_proc_1 - pi_d_a2_a5_proc_0
      + pi_d_a5_a2_proc_1 + pi_d_a5_a2_proc_0 - pi_d_a3_a5_proc_1
      + pi_d_a5_a3_proc_1 - pi_d_a4_a5_proc_1 - pi_d_a4_a5_proc_0
      + pi_d_a5_a4_proc_1 + pi_d_a5_a4_proc_0 + pi_d_a5_a6_proc_0
      - pi_d_a6_a5_proc_0 + pi_d_a5_a7_proc_1 - pi_d_a7_a5_proc_1
      + pi_d_a5_a8_proc_1 + pi_d_a5_a8_proc_0 - pi_d_a8_a5_proc_1
      - pi_d_a8_a5_proc_0 + pi_d_a5_a9_proc_1 + pi_d_a5_a9_proc_0
      - pi_d_a9_a5_proc_1 - pi_d_a9_a5_proc_0 >= 0
 c18: 845 pi_p_a5_a6 + 845 pi_d_a5_a0_proc_0 + 845 pi_d_a5_a1_proc_0
      + 845 pi_d_a5_a2_proc_0 + 845 pi_d_a5_a4_proc_0 + 845 pi_d_a5_a6_proc_0
      + 845 pi_d_a5_a8_proc_0 + 845 pi_d_a5_a9_proc_0 + pi_y1_a5
      + pi_y2_a5_proc_0 >= 0
 c19: 1140 pi_p_a5_a6 + 1140 pi_d_a5_a0_proc_1 + 1140 pi_d_a5_a1_proc_1
      + 1140 pi_d_a5_a2_proc_1 + 1140 pi_d_a5_a3_proc_1 + 1140 pi_d_a5_a4_proc_1
      + 1140 pi_d_a5_a7_proc_1 + 1140 pi_d_a5_a8_proc_1 + 1140 pi_d_a5_a9_proc_1
      + pi_y1_a5 + pi_y2_a5_proc_1 >= 0
 c20: - pi_p_a5_a6 + pi_p_a6_a7 - pi_p_a7_a6 - pi_d_a0_a6_proc_0
      + pi_d_a6_a0_proc_0 - pi_d_a1_a6_proc_0 + pi_d_a6_a1_proc_0
      - pi_d_a2_a6_proc_0 + pi_d_a6_a2_proc_0 - pi_d_a4_a6_proc_0
      + pi_d_a6_a4_proc_0 - pi_d_a5_a6_proc_0 + pi_d_a6_a5_proc_0
      + pi_d_a6_a8_proc_0 - pi_d_a8_a6_proc_0 + pi_d_a6_a9_proc_0
      - pi_d_a9_a6_proc_0 >= 0
 c21: 897 pi_p_a6_a7 + 897 pi_d_a6_a0_proc_0 + 897 pi_d_a6_a1_proc_0
      + 897 pi_d_a6_a2_proc_0 + 897 pi_d_a6_a4_proc_0 + 897 pi_d_a6_a5_proc_0
      + 897 pi_d_a6_a8_proc_0 + 897 pi_d_a6_a9_proc_0 + pi_y1_a6
      + pi_y2_a6_proc_0 >= 0
 c22: - pi_p_a6_a7 - pi_p_a0_a7 + pi_p_a7_a1 + pi_p_a7_a6 - pi_d_a0_a7_proc_1
      + pi_d_a7_a0_proc_1 - pi_d_a1_a7_proc_1 + pi_d_a7_a1_proc_1
      - pi_d_a2_a7_proc_1 + pi_d_a7_a2_proc_1 - pi_d_a3_a7_proc_1
      + pi_d_a7_a3_proc_1 - pi_d_a4_a7_proc_1 + pi_d_a7_a4_proc_1
      - pi_d_a5_a7_proc_1 + pi_d_a7_a5_proc_1 + pi_d_a7_a8_proc_1
      - pi_d_a8_a7_proc_1 + pi_d_a7_a9_proc_1 - pi_d_a9_a7_proc_1 >= 0
 c23: 1025 pi_p_a7_a1 + 1025 pi_p_a7_a6 + 1025 pi_d_a7_a0_proc_1
      + 1025 pi_d_a7_a1_proc_1 + 1025 pi_d_a7_a2_proc_1 + 1025 pi_d_a7_a3_proc_1
      + 1025 pi_d_a7_a4_proc_1 + 1025 pi_d_a7_a5_proc_1 + 1025 pi_d_a7_a8_proc_1
      + 1025 pi_d_a7_a9_proc_1 + pi_y1_a7 + pi_y2_a7_proc_1 >= 0
 c24: pi_p_a8_a0 - pi_p_a4_a8 - pi_d_a0_a8_proc_1 - pi_d_a0_a8_proc_0
      + pi_d_a8_a0_proc_1 + pi_d_a8_a0_proc_0 - pi_d_a1_a8_proc_1
      - pi_d_a1_a8_proc_0 + pi_d_a8_a1_proc_1 + pi_d_a8_a1_proc_0
      - pi_d_a2_a8_proc_1 - pi_d_a2_a8_proc_0 + pi_d_a8_a2_proc_1
      + pi_d_a8_a2_proc_0 - pi_d_a3_a8_proc_1 + pi_d_a8_a3_proc_1
      - pi_d_a4_a8_proc_1 - pi_d_a4_a8_proc_0 + pi_d_a8_a4_proc_1
      + pi_d_a8_a4_proc_0 - pi_d_a5_a8_proc_1 - pi_d_a5_a8_proc_0
      + pi_d_a8_a5_proc_1 + pi_d_a8_a5_proc_0 - pi_d_a6_a8_proc_0
      + pi_d_a8_a6_proc_0 - pi_d_a7_a8_proc_1 + pi_d_a8_a7_proc_1
      + pi_d_a8_a9_proc_1 + pi_d_a8_a9_proc_0 - pi_d_a9_a8_proc_1
      - pi_d_a9_a8_proc_0 >= 0
 c25: 1155 pi_p_a8_a0 + 1155 pi_d_a8_a0_proc_0 + 1155 pi_d_a8_a1_proc_0
      + 1155 pi_d_a8_a2_proc_0 + 1155 pi_d_a8_a4_proc_0 + 1155 pi_d_a8_a5_proc_0
      + 1155 pi_d_a8_a6_proc_0 + 1155 pi_d_a8_a9_proc_0 + pi_y1_a8
      + pi_y2_a8_proc_0 >= 0
 c26: 1173 pi_p_a8_a0 + 1173 pi_d_a8_a0_proc_1 + 1173 pi_d_a8_a1_proc_1
      + 1173 pi_d_a8_a2_proc_1 + 1173 pi_d_a8_a3_proc_1 + 1173 pi_d_a8_a4_proc_1
      + 1173 pi_d_a8_a5_proc_1 + 1173 pi_d_a8_a7_proc_1 + 1173 pi_d_a8_a9_proc_1
      + pi_y1_a8 + pi_y2_a8_proc_1 >= 0
 c27: pi_p_a9_a2 + pi_p_a9_a1 - pi_d_a0_a9_proc_1 - pi_d_a0_a9_proc_0
      + pi_d_a9_a0_proc_1 + pi_d_a9_a0_proc_0 - pi_d_a1_a9_proc_1
      - pi_d_a1_a9_proc_0 + pi_d_a9_a1_proc_1 + pi_d_a9_a1_proc_0
      - pi_d_a2_a9_proc_1 - pi_d_a2_a9_proc_0 + pi_d_a9_a2_proc_1
      + pi_d_a9_a2_proc_0 - pi_d_a3_a9_proc_1 + pi_d_a9_a3_proc_1
      - pi_d_a4_a9_proc_1 - pi_d_a4_a9_proc_0 + pi_d_a9_a4_proc_1
      + pi_d_a9_a4_proc_0 - pi_d_a5_a9_proc_1 - pi_d_a5_a9_proc_0
      + pi_d_a9_a5_proc_1 + pi_d_a9_a5_proc_0 - pi_d_a6_a9_proc_0
      + pi_d_a9_a6_proc_0 - pi_d_a7_a9_proc_1 + pi_d_a9_a7_proc_1
      - pi_d_a8_a9_proc_1 - pi_d_a8_a9_proc_0 + pi_d_a9_a8_proc_1
      + pi_d_a9_a8_proc_0 >= 0
 c28: 1270 pi_p_a9_a2 + 1270 pi_p_a9_a1 + 1270 pi_p_a9_a9
      + 1270 pi_d_a9_a0_proc_0 + 1270 pi_d_a9_a1_proc_0 + 1270 pi_d_a9_a2_proc_0
      + 1270 pi_d_a9_a4_proc_0 + 1270 pi_d_a9_a5_proc_0 + 1270 pi_d_a9_a6_proc_0
      + 1270 pi_d_a9_a8_proc_0 + pi_y1_a9 + pi_y2_a9_proc_0 >= 0
 c29: 1182 pi_p_a9_a2 + 1182 pi_p_a9_a1 + 1182 pi_p_a9_a9
      + 1182 pi_d_a9_a0_proc_1 + 1182 pi_d_a9_a1_proc_1 + 1182 pi_d_a9_a2_proc_1
      + 1182 pi_d_a9_a3_proc_1 + 1182 pi_d_a9_a4_proc_1 + 1182 pi_d_a9_a5_proc_1
      + 1182 pi_d_a9_a7_proc_1 + 1182 pi_d_a9_a8_proc_1 + pi_y1_a9
      + pi_y2_a9_proc_1 >= 0

Bounds
       pi_y1_a0 Free
       pi_y1_a1 Free
       pi_y1_a2 Free
       pi_y1_a3 Free
       pi_y1_a4 Free
       pi_y1_a5 Free
       pi_y1_a6 Free
       pi_y1_a7 Free
       pi_y1_a8 Free
       pi_y1_a9 Free
End
