benchmark/results/graph__10-1000-0.10-02_10/graph__10-1000-0.10-02_10_QuintonOs_Benders_aux.txt
solution for: Quinton Bounded Benders_auxiliary_sub
objective: 0.595978
status: OPTIMAL_SOLUTION(2)
pi_p_a1_a0=0.000
pi_d_a0_a6_proc_0=0.000
pi_d_a5_a1_proc_0=0.000
pi_d_a8_a5_proc_0=0.000
pi_d_a6_a8_proc_0=0.000
pi_y1_a0=-0.177
pi_y1_a1=-0.228
pi_y1_a5=-0.173
pi_y1_a6=-0.184
pi_y1_a8=-0.237
pi_y2_a0_proc_1=0.177
pi_y2_a5_proc_1=0.173
pi_y2_a8_proc_1=0.237
